NAME : eil31-4
COMMENT : 31-city problem (Christofides/Eilon)
TYPE : CTSP
DIMENSION : 31
SALESMEN : 4
EDGE_WEIGHT_TYPE : EUC_2D
NODE_COORD_SECTION
1 42 41
2 5 25
3 20 26
4 7 38
5 17 33
6 61 33
7 51 31
8 58 27
9 48 28
10 57 58
11 58 48
12 49 49
13 42 57
14 8 52
15 21 47
16 25 55
17 16 57
18 37 52
19 52 41
20 31 32
21 62 42
22 38 46
23 25 32
24 45 35
25 12 42
26 40 30
27 30 48
28 30 40
29 56 37
30 52 33
31 32 39
CTSP_SET_SECTION
1 2 3 4 5 -1
2 6 7 8 9 -1
3 10 11 12 13 -1
4 14 15 16 17 -1
DEPOT_SECTION
1
-1
EOF
